files/upTests/_enums_in_types/set_enum/0003.eprime
language ESSENCE' 1.0

find se_SetExplicitVarSizeWithMarker_tuple1: int(0..2)
find se_SetExplicitVarSizeWithMarker_tuple2:
        matrix indexed by [int(1..2)] of int(1..2)
such that
    se_SetExplicitVarSizeWithMarker_tuple1 >= 1,
    forAll v__0 : int(1..2)
        . v__0 + 1 <= se_SetExplicitVarSizeWithMarker_tuple1
          ->
          se_SetExplicitVarSizeWithMarker_tuple2[v__0]
          <
          se_SetExplicitVarSizeWithMarker_tuple2[v__0 + 1]
