files/upTests/_enums_in_types/set_enum/0003.eprime.solution
language ESSENCE' 1.0
$ minion Nodes: 4
$ minion TotalTime: 0.000394
$ Savile Row TotalTime: 0.148
letting se_SetExplicitVarSizeWithMarker_tuple1 be 1
letting se_SetExplicitVarSizeWithMarker_tuple2 be [1, 1;int(1..2)]
